Running for instance ./models/c204.txt
Generating routes...
Execution time:  0.10943025  minutes
Academic license - for non-commercial use only
Warning: constraint name "Cliente esta na rota" has a space
Optimize a model with 26 rows, 5000 columns and 42924 nonzeros
Variable types: 0 continuous, 5000 integer (0 binary)
Coefficient statistics:
  Matrix range     [1e+00, 1e+00]
  Objective range  [3e+01, 3e+02]
  Bounds range     [1e+00, 1e+00]
  RHS range        [1e+00, 2e+01]
Found heuristic solution: objective 807.9481221
Presolve removed 0 rows and 358 columns
Presolve time: 0.03s
Presolved: 26 rows, 4642 columns, 40109 nonzeros
Variable types: 0 continuous, 4642 integer (4642 binary)

Root relaxation: objective 3.310017e+02, 82 iterations, 0.01 seconds

    Nodes    |    Current Node    |     Objective Bounds      |     Work
 Expl Unexpl |  Obj  Depth IntInf | Incumbent    BestBd   Gap | It/Node Time

     0     0  331.00169    0   25  807.94812  331.00169  59.0%     -    0s
H    0     0                     509.7358727  331.00169  35.1%     -    0s
H    0     0                     440.9328083  331.00169  24.9%     -    0s
H    0     0                     413.5770502  331.00169  20.0%     -    0s
     0     0  333.38432    0   27  413.57705  333.38432  19.4%     -    0s
H    0     0                     408.9462593  333.38432  18.5%     -    0s
     0     0  334.75506    0   27  408.94626  334.75506  18.1%     -    0s
     0     0  336.59261    0   30  408.94626  336.59261  17.7%     -    0s
     0     0  337.51599    0   32  408.94626  337.51599  17.5%     -    0s
     0     0  338.41150    0   30  408.94626  338.41150  17.2%     -    0s
     0     0  339.18129    0   33  408.94626  339.18129  17.1%     -    0s
     0     0  339.25162    0   34  408.94626  339.25162  17.0%     -    0s
     0     0  339.41489    0   34  408.94626  339.41489  17.0%     -    0s
     0     0  339.65023    0   34  408.94626  339.65023  16.9%     -    0s
     0     0  341.11124    0   30  408.94626  341.11124  16.6%     -    0s
     0     0  341.11124    0   25  408.94626  341.11124  16.6%     -    0s
     0     0  341.11124    0   27  408.94626  341.11124  16.6%     -    0s
H    0     0                     382.9213846  341.11124  10.9%     -    0s
     0     0  341.11124    0   28  382.92138  341.11124  10.9%     -    0s
     0     0  341.11124    0   27  382.92138  341.11124  10.9%     -    0s
     0     0  341.11124    0   27  382.92138  341.11124  10.9%     -    0s
     0     0  341.11124    0   28  382.92138  341.11124  10.9%     -    0s
     0     0  341.11124    0   30  382.92138  341.11124  10.9%     -    0s
     0     0  341.11124    0   33  382.92138  341.11124  10.9%     -    0s
     0     0  341.11124    0   34  382.92138  341.11124  10.9%     -    0s
     0     0  341.11124    0   35  382.92138  341.11124  10.9%     -    0s
     0     0  341.11124    0   35  382.92138  341.11124  10.9%     -    0s
     0     0  341.49936    0   37  382.92138  341.49936  10.8%     -    0s
     0     0  341.60216    0   37  382.92138  341.60216  10.8%     -    0s
     0     0  341.81757    0   38  382.92138  341.81757  10.7%     -    0s
     0     0  341.96413    0   38  382.92138  341.96413  10.7%     -    0s
     0     0  342.91757    0   36  382.92138  342.91757  10.4%     -    0s
     0     0  342.91757    0   25  382.92138  342.91757  10.4%     -    0s
     0     0  342.91757    0   27  382.92138  342.91757  10.4%     -    0s
     0     0  342.91757    0   26  382.92138  342.91757  10.4%     -    0s
H    0     0                     377.6082550  342.91757  9.19%     -    0s
     0     0  342.91757    0   26  377.60826  342.91757  9.19%     -    0s
     0     0  342.91757    0   27  377.60826  342.91757  9.19%     -    0s
H    0     0                     373.4908866  342.91757  8.19%     -    0s
     0     0  342.91757    0   30  373.49089  342.91757  8.19%     -    0s
     0     0  342.91757    0   32  373.49089  342.91757  8.19%     -    0s
     0     0  342.91757    0   32  373.49089  342.91757  8.19%     -    0s
     0     0  342.91757    0   35  373.49089  342.91757  8.19%     -    0s
     0     0  342.91757    0   37  373.49089  342.91757  8.19%     -    0s
H    0     0                     369.6991096  342.91757  7.24%     -    0s
     0     0  342.91757    0   34  369.69911  342.91757  7.24%     -    0s
     0     0  344.78491    0   35  369.69911  344.78491  6.74%     -    0s
     0     0  347.13556    0   37  369.69911  347.13556  6.10%     -    0s
     0     0  347.48689    0   35  369.69911  347.48689  6.01%     -    0s
     0     0  350.22103    0   37  369.69911  350.22103  5.27%     -    0s
H    0     0                     369.2450926  350.22103  5.15%     -    0s
     0     0  367.49421    0   39  369.24509  367.49421  0.47%     -    0s
     0     0  367.49421    0   25  369.24509  367.49421  0.47%     -    0s
     0     0  367.49421    0   28  369.24509  367.49421  0.47%     -    0s
     0     0  367.49421    0   27  369.24509  367.49421  0.47%     -    0s
     0     0  367.49421    0   30  369.24509  367.49421  0.47%     -    0s
     0     0  367.49421    0   32  369.24509  367.49421  0.47%     -    0s
     0     0  367.49421    0   33  369.24509  367.49421  0.47%     -    0s
     0     0  367.49421    0   36  369.24509  367.49421  0.47%     -    0s
     0     0  367.49421    0   33  369.24509  367.49421  0.47%     -    0s
     0     0  367.49421    0   35  369.24509  367.49421  0.47%     -    0s
     0     0  367.49421    0   36  369.24509  367.49421  0.47%     -    0s
     0     0  367.49421    0   36  369.24509  367.49421  0.47%     -    0s
     0     0  367.49421    0   36  369.24509  367.49421  0.47%     -    0s
     0     0  367.49421    0   39  369.24509  367.49421  0.47%     -    0s
     0     0  367.49421    0   37  369.24509  367.49421  0.47%     -    0s
     0     0  367.49421    0   39  369.24509  367.49421  0.47%     -    0s
     0     0  367.49421    0   39  369.24509  367.49421  0.47%     -    0s
     0     0  367.49421    0   44  369.24509  367.49421  0.47%     -    0s
     0     0  367.49421    0   25  369.24509  367.49421  0.47%     -    0s
     0     0  367.49421    0   29  369.24509  367.49421  0.47%     -    0s
     0     0  367.49421    0   28  369.24509  367.49421  0.47%     -    0s
     0     0  367.49421    0   31  369.24509  367.49421  0.47%     -    0s
     0     0  367.49421    0   30  369.24509  367.49421  0.47%     -    0s
     0     0  367.49421    0   33  369.24509  367.49421  0.47%     -    0s
     0     0  367.49421    0   36  369.24509  367.49421  0.47%     -    0s
     0     0  367.49421    0   37  369.24509  367.49421  0.47%     -    0s
     0     0  367.49421    0   36  369.24509  367.49421  0.47%     -    0s
     0     0  367.49421    0   34  369.24509  367.49421  0.47%     -    0s
     0     0  367.49421    0   38  369.24509  367.49421  0.47%     -    0s
     0     0  368.93730    0   37  369.24509  368.93730  0.08%     -    0s
     0     0  368.93730    0   40  369.24509  368.93730  0.08%     -    0s
     0     0  368.93730    0   43  369.24509  368.93730  0.08%     -    0s
     0     0  368.93730    0   44  369.24509  368.93730  0.08%     -    0s
     0     0  368.93730    0   42  369.24509  368.93730  0.08%     -    0s
     0     2  368.93730    0   42  369.24509  368.93730  0.08%     -    0s

Cutting planes:
  MIR: 32
  Zero half: 6

Explored 75 nodes (3562 simplex iterations) in 1.05 seconds
Thread count was 8 (of 8 available processors)

Solution count 10: 369.245 369.699 373.491 ... 807.948

Optimal solution found (tolerance 1.00e-04)
Best objective 3.692450926102e+02, best bound 3.692450926102e+02, gap 0.0000%
4 3 15 13 11
6 23 9 17 19 16 14 12
20 24 22 21 25 11 10 5 2 7
Distance: 369.24509261
Execution time:  0.132892683333  minutes
